59319
126,131,134,345,347,548,838,881,922,1115,1171,1300,1371,1419,1602,1734,1777,1783,1852,1885,1898,1932,2023,2043,2135,2140,2164,2588,2651,2675,2870,2988,3000,3042,3096,3127,3356,3392,3533,4007,4185,4187,4293,4306,4312,4377,4468,4500,4610,4632,4732,4776,4873,5038,5263,5348,5365,5388,5412,5426,5536,5579,5634,5841,5879,5919,6096,6203,6222,6237,6338,6409,6517,6526,6906,7061,7068,7151,7264,7484,7615,7683,7925,8048,8173,8397,8682,8817,8827,8832,8928,8946,8963,9186,9236,9289,9772,9952
